NAME          
ROWS
 N  OBJ
 L  c2
 L  c3
 L  c4
 L  c5
 L  c6
 L  c7
 L  c8
 L  c9
 L  c10
 L  c11
 G  c1
COLUMNS
    ss[1]     c1        1
    ss[1]     OBJ       1000
    s[1]      c2        1
    s[1]      OBJ       -1000
    s[2]      c3        1
    s[2]      OBJ       -1000
    s[3]      c4        1
    s[3]      OBJ       -1000
    s[4]      c5        1
    s[4]      OBJ       -1000
    s[5]      c6        1
    s[5]      OBJ       -1000
    s[6]      c7        1
    s[6]      OBJ       -1000
    s[7]      c8        1
    s[7]      OBJ       -1000
    s[8]      c9        1
    s[8]      OBJ       -1000
    s[9]      c10       1
    s[9]      OBJ       -1000
    s[10]     c11       1
    s[10]     OBJ       -1000
    MARKER    'MARKER'                 'INTORG'
    x[1]      c2        504
    x[1]      c3        923
    x[1]      c4        80
    x[1]      c5        870
    x[1]      c6        763
    x[1]      c7        637
    x[1]      c8        695
    x[1]      c9        556
    x[1]      c10       807
    x[1]      c11       469
    x[1]      c1        556
    x[1]      OBJ       -431
    x[2]      c2        793
    x[2]      c3        48
    x[2]      c4        905
    x[2]      c5        28
    x[2]      c6        568
    x[2]      c7        926
    x[2]      c8        517
    x[2]      c9        244
    x[2]      c10       314
    x[2]      c11       239
    x[2]      c1        736
    x[2]      OBJ       -38
    x[3]      c2        417
    x[3]      c3        745
    x[3]      c4        997
    x[3]      c5        785
    x[3]      c6        561
    x[3]      c7        187
    x[3]      c8        611
    x[3]      c9        897
    x[3]      c10       275
    x[3]      c11       538
    x[3]      c1        301
    x[3]      OBJ       -567
    x[4]      c2        431
    x[4]      c3        889
    x[4]      c4        283
    x[4]      c5        997
    x[4]      c6        430
    x[4]      c7        170
    x[4]      c8        363
    x[4]      c9        976
    x[4]      c10       744
    x[4]      c11       116
    x[4]      c1        111
    x[4]      OBJ       -629
    x[5]      c2        998
    x[5]      c3        123
    x[5]      c4        851
    x[5]      c5        610
    x[5]      c6        459
    x[5]      c7        562
    x[5]      c8        308
    x[5]      c9        580
    x[5]      c10       566
    x[5]      c11       632
    x[5]      c1        704
    x[5]      OBJ       -100
    x[6]      c2        431
    x[6]      c3        864
    x[6]      c4        206
    x[6]      c5        345
    x[6]      c6        221
    x[6]      c7        10
    x[6]      c8        250
    x[6]      c9        533
    x[6]      c10       629
    x[6]      c11       281
    x[6]      c1        408
    x[6]      OBJ       -400
    x[7]      c2        371
    x[7]      c3        142
    x[7]      c4        918
    x[7]      c5        845
    x[7]      c6        910
    x[7]      c7        388
    x[7]      c8        269
    x[7]      c9        390
    x[7]      c10       220
    x[7]      c11       279
    x[7]      c1        163
    x[7]      OBJ       -316
    x[8]      c2        636
    x[8]      c3        118
    x[8]      c4        212
    x[8]      c5        731
    x[8]      c6        339
    x[8]      c7        454
    x[8]      c8        161
    x[8]      c9        463
    x[8]      c10       273
    x[8]      c11       599
    x[8]      c1        315
    x[8]      OBJ       -320
    x[9]      c2        239
    x[9]      c3        643
    x[9]      c4        32
    x[9]      c5        972
    x[9]      c6        505
    x[9]      c7        932
    x[9]      c8        388
    x[9]      c9        245
    x[9]      c10       297
    x[9]      c11       74
    x[9]      c1        670
    x[9]      OBJ       -127
    x[10]     c2        361
    x[10]     c3        67
    x[10]     c4        483
    x[10]     c5        605
    x[10]     c6        765
    x[10]     c7        302
    x[10]     c8        787
    x[10]     c9        527
    x[10]     c10       668
    x[10]     c11       292
    x[10]     c1        457
    x[10]     OBJ       -420
    x[11]     c2        408
    x[11]     c3        582
    x[11]     c4        734
    x[11]     c5        106
    x[11]     c6        322
    x[11]     c7        697
    x[11]     c8        347
    x[11]     c9        323
    x[11]     c10       535
    x[11]     c11       468
    x[11]     c1        357
    x[11]     OBJ       -349
    x[12]     c2        766
    x[12]     c3        966
    x[12]     c4        809
    x[12]     c5        989
    x[12]     c6        746
    x[12]     c7        969
    x[12]     c8        293
    x[12]     c9        660
    x[12]     c10       660
    x[12]     c11       223
    x[12]     c1        916
    x[12]     OBJ       -133
    x[13]     c2        184
    x[13]     c3        164
    x[13]     c4        614
    x[13]     c5        301
    x[13]     c6        179
    x[13]     c7        295
    x[13]     c8        145
    x[13]     c9        26
    x[13]     c10       242
    x[13]     c11       808
    x[13]     c1        614
    x[13]     OBJ       -20
    x[14]     c2        145
    x[14]     c3        206
    x[14]     c4        661
    x[14]     c5        648
    x[14]     c6        840
    x[14]     c7        855
    x[14]     c8        573
    x[14]     c9        419
    x[14]     c10       584
    x[14]     c11       622
    x[14]     c1        60
    x[14]     OBJ       -947
    x[15]     c2        66
    x[15]     c3        406
    x[15]     c4        327
    x[15]     c5        987
    x[15]     c6        340
    x[15]     c7        466
    x[15]     c8        423
    x[15]     c9        239
    x[15]     c10       492
    x[15]     c11       108
    x[15]     c1        373
    x[15]     OBJ       -453
    x[16]     c2        900
    x[16]     c3        386
    x[16]     c4        65
    x[16]     c5        14
    x[16]     c6        152
    x[16]     c7        873
    x[16]     c8        180
    x[16]     c9        414
    x[16]     c10       206
    x[16]     c11       363
    x[16]     c1        182
    x[16]     OBJ       -498
    x[17]     c2        599
    x[17]     c3        130
    x[17]     c4        485
    x[17]     c5        107
    x[17]     c6        981
    x[17]     c7        978
    x[17]     c8        132
    x[17]     c9        270
    x[17]     c10       878
    x[17]     c11       477
    x[17]     c1        129
    x[17]     OBJ       -468
    x[18]     c2        362
    x[18]     c3        604
    x[18]     c4        841
    x[18]     c5        240
    x[18]     c6        832
    x[18]     c7        575
    x[18]     c8        349
    x[18]     c9        766
    x[18]     c10       634
    x[18]     c11       493
    x[18]     c1        767
    x[18]     OBJ       -249
    x[19]     c2        301
    x[19]     c3        238
    x[19]     c4        761
    x[19]     c5        166
    x[19]     c6        99
    x[19]     c7        905
    x[19]     c8        831
    x[19]     c9        104
    x[19]     c10       622
    x[19]     c11       205
    x[19]     c1        896
    x[19]     OBJ       -120
    x[20]     c2        846
    x[20]     c3        487
    x[20]     c4        394
    x[20]     c5        975
    x[20]     c6        971
    x[20]     c7        482
    x[20]     c8        532
    x[20]     c9        296
    x[20]     c10       282
    x[20]     c11       53
    x[20]     c1        178
    x[20]     OBJ       -698
    x[21]     c2        103
    x[21]     c3        978
    x[21]     c4        377
    x[21]     c5        885
    x[21]     c6        762
    x[21]     c7        543
    x[21]     c8        406
    x[21]     c9        42
    x[21]     c10       461
    x[21]     c11       126
    x[21]     c1        975
    x[21]     OBJ       -25
    x[22]     c2        819
    x[22]     c3        778
    x[22]     c4        510
    x[22]     c5        62
    x[22]     c6        741
    x[22]     c7        289
    x[22]     c8        53
    x[22]     c9        846
    x[22]     c10       855
    x[22]     c11       21
    x[22]     c1        226
    x[22]     OBJ       -720
    x[23]     c2        382
    x[23]     c3        980
    x[23]     c4        96
    x[23]     c5        863
    x[23]     c6        799
    x[23]     c7        943
    x[23]     c8        864
    x[23]     c9        967
    x[23]     c10       768
    x[23]     c11       891
    x[23]     c1        404
    x[23]     OBJ       -562
    x[24]     c2        917
    x[24]     c3        383
    x[24]     c4        141
    x[24]     c5        180
    x[24]     c6        421
    x[24]     c7        47
    x[24]     c8        77
    x[24]     c9        700
    x[24]     c10       794
    x[24]     c11       22
    x[24]     c1        833
    x[24]     OBJ       -87
    x[25]     c2        156
    x[25]     c3        424
    x[25]     c4        136
    x[25]     c5        119
    x[25]     c6        178
    x[25]     c7        433
    x[25]     c8        358
    x[25]     c9        238
    x[25]     c10       241
    x[25]     c11       818
    x[25]     c1        575
    x[25]     OBJ       -114
    x[26]     c2        977
    x[26]     c3        826
    x[26]     c4        209
    x[26]     c5        447
    x[26]     c6        89
    x[26]     c7        831
    x[26]     c8        404
    x[26]     c9        834
    x[26]     c10       922
    x[26]     c11       69
    x[26]     c1        340
    x[26]     OBJ       -484
    x[27]     c2        314
    x[27]     c3        857
    x[27]     c4        637
    x[27]     c5        19
    x[27]     c6        776
    x[27]     c7        370
    x[27]     c8        166
    x[27]     c9        572
    x[27]     c10       420
    x[27]     c11       30
    x[27]     c1        321
    x[27]     OBJ       -488
    x[28]     c2        68
    x[28]     c3        634
    x[28]     c4        451
    x[28]     c5        365
    x[28]     c6        582
    x[28]     c7        110
    x[28]     c8        24
    x[28]     c9        169
    x[28]     c10       101
    x[28]     c11       573
    x[28]     c1        580
    x[28]     OBJ       -100
    x[29]     c2        822
    x[29]     c3        781
    x[29]     c4        442
    x[29]     c5        646
    x[29]     c6        208
    x[29]     c7        496
    x[29]     c8        705
    x[29]     c9        321
    x[29]     c10       184
    x[29]     c11       891
    x[29]     c1        425
    x[29]     OBJ       -438
    x[30]     c2        68
    x[30]     c3        952
    x[30]     c4        237
    x[30]     c5        683
    x[30]     c6        882
    x[30]     c7        3
    x[30]     c8        260
    x[30]     c9        647
    x[30]     c10       576
    x[30]     c11       201
    x[30]     c1        955
    x[30]     OBJ       179
    x[31]     c2        896
    x[31]     c3        28
    x[31]     c4        892
    x[31]     c5        257
    x[31]     c6        639
    x[31]     c7        43
    x[31]     c8        666
    x[31]     c9        33
    x[31]     c10       247
    x[31]     c11       643
    x[31]     c1        739
    x[31]     OBJ       -1
    x[32]     c2        111
    x[32]     c3        97
    x[32]     c4        123
    x[32]     c5        353
    x[32]     c6        395
    x[32]     c7        951
    x[32]     c8        713
    x[32]     c9        452
    x[32]     c10       463
    x[32]     c11       927
    x[32]     c1        473
    x[32]     OBJ       -336
    x[33]     c2        93
    x[33]     c3        499
    x[33]     c4        243
    x[33]     c5        427
    x[33]     c6        888
    x[33]     c7        61
    x[33]     c8        133
    x[33]     c9        78
    x[33]     c10       762
    x[33]     c11       670
    x[33]     c1        946
    x[33]     OBJ       467
    x[34]     c2        757
    x[34]     c3        55
    x[34]     c4        25
    x[34]     c5        160
    x[34]     c6        123
    x[34]     c7        671
    x[34]     c8        778
    x[34]     c9        801
    x[34]     c10       498
    x[34]     c11       656
    x[34]     c1        666
    x[34]     OBJ       -282
    x[35]     c2        679
    x[35]     c3        322
    x[35]     c4        810
    x[35]     c5        568
    x[35]     c6        383
    x[35]     c7        209
    x[35]     c8        218
    x[35]     c9        304
    x[35]     c10       494
    x[35]     c11       516
    x[35]     c1        630
    x[35]     OBJ       -61
    x[36]     c2        22
    x[36]     c3        479
    x[36]     c4        705
    x[36]     c5        442
    x[36]     c6        304
    x[36]     c7        707
    x[36]     c8        188
    x[36]     c9        40
    x[36]     c10       979
    x[36]     c11       694
    x[36]     c1        462
    x[36]     OBJ       -329
    x[37]     c2        825
    x[37]     c3        720
    x[37]     c4        857
    x[37]     c5        352
    x[37]     c6        812
    x[37]     c7        742
    x[37]     c8        388
    x[37]     c9        76
    x[37]     c10       834
    x[37]     c11       953
    x[37]     c1        841
    x[37]     OBJ       -103
    x[38]     c2        781
    x[38]     c3        81
    x[38]     c4        319
    x[38]     c5        795
    x[38]     c6        233
    x[38]     c7        917
    x[38]     c8        72
    x[38]     c9        128
    x[38]     c10       245
    x[38]     c11       835
    x[38]     c1        2
    x[38]     OBJ       -527
    x[39]     c2        165
    x[39]     c3        659
    x[39]     c4        700
    x[39]     c5        768
    x[39]     c6        777
    x[39]     c7        727
    x[39]     c8        79
    x[39]     c9        619
    x[39]     c10       359
    x[39]     c11       215
    x[39]     c1        778
    x[39]     OBJ       207
    x[40]     c2        727
    x[40]     c3        573
    x[40]     c4        510
    x[40]     c5        499
    x[40]     c6        638
    x[40]     c7        548
    x[40]     c8        673
    x[40]     c9        158
    x[40]     c10       833
    x[40]     c11       434
    x[40]     c1        714
    x[40]     OBJ       -73
    x[41]     c2        750
    x[41]     c3        804
    x[41]     c4        462
    x[41]     c5        299
    x[41]     c6        59
    x[41]     c7        465
    x[41]     c8        264
    x[41]     c9        972
    x[41]     c10       52
    x[41]     c11       649
    x[41]     c1        855
    x[41]     OBJ       -106
    x[42]     c2        372
    x[42]     c3        112
    x[42]     c4        69
    x[42]     c5        587
    x[42]     c6        982
    x[42]     c7        117
    x[42]     c8        154
    x[42]     c9        670
    x[42]     c10       41
    x[42]     c11       3
    x[42]     c1        768
    x[42]     OBJ       -124
    x[43]     c2        988
    x[43]     c3        691
    x[43]     c4        280
    x[43]     c5        290
    x[43]     c6        577
    x[43]     c7        870
    x[43]     c8        242
    x[43]     c9        647
    x[43]     c10       599
    x[43]     c11       199
    x[43]     c1        141
    x[43]     OBJ       -647
    x[44]     c2        254
    x[44]     c3        756
    x[44]     c4        545
    x[44]     c5        739
    x[44]     c6        61
    x[44]     c7        401
    x[44]     c8        158
    x[44]     c9        570
    x[44]     c10       920
    x[44]     c11       911
    x[44]     c1        847
    x[44]     OBJ       -95
    x[45]     c2        945
    x[45]     c3        947
    x[45]     c4        173
    x[45]     c5        525
    x[45]     c6        573
    x[45]     c7        216
    x[45]     c8        699
    x[45]     c9        432
    x[45]     c10       978
    x[45]     c11       8
    x[45]     c1        325
    x[45]     OBJ       -635
    x[46]     c2        995
    x[46]     c3        543
    x[46]     c4        702
    x[46]     c5        910
    x[46]     c6        296
    x[46]     c7        194
    x[46]     c8        27
    x[46]     c9        81
    x[46]     c10       587
    x[46]     c11       207
    x[46]     c1        765
    x[47]     c2        77
    x[47]     c3        726
    x[47]     c4        317
    x[47]     c5        511
    x[47]     c6        84
    x[47]     c7        155
    x[47]     c8        900
    x[47]     c9        607
    x[47]     c10       494
    x[47]     c11       876
    x[47]     c1        10
    x[47]     OBJ       -937
    x[48]     c2        158
    x[48]     c3        346
    x[48]     c4        449
    x[48]     c5        918
    x[48]     c6        8
    x[48]     c7        966
    x[48]     c8        537
    x[48]     c9        187
    x[48]     c10       42
    x[48]     c11       28
    x[48]     c1        162
    x[48]     OBJ       -333
    x[49]     c2        222
    x[49]     c3        920
    x[49]     c4        732
    x[49]     c5        514
    x[49]     c6        274
    x[49]     c7        936
    x[49]     c8        692
    x[49]     c9        48
    x[49]     c10       855
    x[49]     c11       9
    x[49]     c1        208
    x[49]     OBJ       -568
    x[50]     c2        371
    x[50]     c3        784
    x[50]     c4        190
    x[50]     c5        208
    x[50]     c6        111
    x[50]     c7        275
    x[50]     c8        541
    x[50]     c9        941
    x[50]     c10       67
    x[50]     c11       447
    x[50]     c1        981
    x[50]     OBJ       502
    x[51]     c2        482
    x[51]     c3        840
    x[51]     c4        73
    x[51]     c5        9
    x[51]     c6        110
    x[51]     c7        822
    x[51]     c8        79
    x[51]     c9        769
    x[51]     c10       341
    x[51]     c11       595
    x[51]     c1        638
    x[51]     OBJ       -64
    x[52]     c2        325
    x[52]     c3        952
    x[52]     c4        135
    x[52]     c5        487
    x[52]     c6        763
    x[52]     c7        413
    x[52]     c8        554
    x[52]     c9        576
    x[52]     c10       346
    x[52]     c11       223
    x[52]     c1        184
    x[52]     OBJ       -519
    x[53]     c2        333
    x[53]     c3        960
    x[53]     c4        158
    x[53]     c5        934
    x[53]     c6        211
    x[53]     c7        657
    x[53]     c8        777
    x[53]     c9        252
    x[53]     c10       80
    x[53]     c11       788
    x[53]     c1        124
    x[53]     OBJ       -467
    x[54]     c2        674
    x[54]     c3        92
    x[54]     c4        783
    x[54]     c5        624
    x[54]     c6        616
    x[54]     c7        91
    x[54]     c8        970
    x[54]     c9        519
    x[54]     c10       877
    x[54]     c11       404
    x[54]     c1        910
    x[54]     OBJ       -44
    x[55]     c2        421
    x[55]     c3        767
    x[55]     c4        814
    x[55]     c5        892
    x[55]     c6        765
    x[55]     c7        351
    x[55]     c8        367
    x[55]     c9        771
    x[55]     c10       891
    x[55]     c11       333
    x[55]     c1        332
    x[55]     OBJ       -363
    x[56]     c2        409
    x[56]     c3        89
    x[56]     c4        341
    x[56]     c5        24
    x[56]     c6        318
    x[56]     c7        934
    x[56]     c8        362
    x[56]     c9        619
    x[56]     c10       678
    x[56]     c11       360
    x[56]     c1        634
    x[56]     OBJ       213
    x[57]     c2        480
    x[57]     c3        914
    x[57]     c4        686
    x[57]     c5        820
    x[57]     c6        71
    x[57]     c7        462
    x[57]     c8        543
    x[57]     c9        584
    x[57]     c10       637
    x[57]     c11       823
    x[57]     c1        555
    x[57]     OBJ       -269
    x[58]     c2        673
    x[58]     c3        188
    x[58]     c4        934
    x[58]     c5        345
    x[58]     c6        420
    x[58]     c7        512
    x[58]     c8        781
    x[58]     c9        394
    x[58]     c10       592
    x[58]     c11       900
    x[58]     c1        55
    x[58]     OBJ       -790
    x[59]     c2        665
    x[59]     c3        313
    x[59]     c4        11
    x[59]     c5        658
    x[59]     c6        720
    x[59]     c7        673
    x[59]     c8        592
    x[59]     c9        69
    x[59]     c10       650
    x[59]     c11       609
    x[59]     c1        396
    x[59]     OBJ       -560
    x[60]     c2        516
    x[60]     c3        283
    x[60]     c4        810
    x[60]     c5        349
    x[60]     c6        598
    x[60]     c7        455
    x[60]     c8        903
    x[60]     c9        335
    x[60]     c10       820
    x[60]     c11       116
    x[60]     c1        23
    x[60]     OBJ       -722
    x[61]     c2        334
    x[61]     c3        167
    x[61]     c4        202
    x[61]     c5        902
    x[61]     c6        702
    x[61]     c7        66
    x[61]     c8        626
    x[61]     c9        419
    x[61]     c10       451
    x[61]     c11       627
    x[61]     c1        171
    x[61]     OBJ       -597
    x[62]     c2        454
    x[62]     c3        794
    x[62]     c4        461
    x[62]     c5        1000
    x[62]     c6        40
    x[62]     c7        387
    x[62]     c8        823
    x[62]     c9        26
    x[62]     c10       304
    x[62]     c11       183
    x[62]     c1        310
    x[62]     OBJ       -554
    x[63]     c2        204
    x[63]     c3        13
    x[63]     c4        844
    x[63]     c5        585
    x[63]     c6        253
    x[63]     c7        795
    x[63]     c8        423
    x[63]     c9        187
    x[63]     c10       245
    x[63]     c11       33
    x[63]     c1        181
    x[63]     OBJ       -351
    x[64]     c2        232
    x[64]     c3        83
    x[64]     c4        345
    x[64]     c5        875
    x[64]     c6        656
    x[64]     c7        236
    x[64]     c8        226
    x[64]     c9        185
    x[64]     c10       214
    x[64]     c11       487
    x[64]     c1        378
    x[64]     OBJ       -113
    x[65]     c2        12
    x[65]     c3        30
    x[65]     c4        805
    x[65]     c5        635
    x[65]     c6        307
    x[65]     c7        918
    x[65]     c8        797
    x[65]     c9        118
    x[65]     c10       222
    x[65]     c11       546
    x[65]     c1        600
    x[65]     OBJ       -247
    x[66]     c2        274
    x[66]     c3        366
    x[66]     c4        855
    x[66]     c5        730
    x[66]     c6        123
    x[66]     c7        620
    x[66]     c8        595
    x[66]     c9        601
    x[66]     c10       291
    x[66]     c11       122
    x[66]     c1        742
    x[66]     OBJ       -62
    x[67]     c2        705
    x[67]     c3        315
    x[67]     c4        769
    x[67]     c5        789
    x[67]     c6        333
    x[67]     c7        203
    x[67]     c8        600
    x[67]     c9        880
    x[67]     c10       790
    x[67]     c11       357
    x[67]     c1        275
    x[67]     OBJ       -716
    x[68]     c2        627
    x[68]     c3        354
    x[68]     c4        756
    x[68]     c5        436
    x[68]     c6        861
    x[68]     c7        894
    x[68]     c8        678
    x[68]     c9        416
    x[68]     c10       134
    x[68]     c11       454
    x[68]     c1        601
    x[68]     OBJ       -63
    x[69]     c2        352
    x[69]     c3        357
    x[69]     c4        770
    x[69]     c5        211
    x[69]     c6        404
    x[69]     c7        893
    x[69]     c8        385
    x[69]     c9        621
    x[69]     c10       649
    x[69]     c11       465
    x[69]     c1        951
    x[69]     OBJ       398
    x[70]     c2        858
    x[70]     c3        793
    x[70]     c4        390
    x[70]     c5        91
    x[70]     c6        177
    x[70]     c7        507
    x[70]     c8        577
    x[70]     c9        228
    x[70]     c10       406
    x[70]     c11       574
    x[70]     c1        731
    x[70]     OBJ       -34
    x[71]     c2        407
    x[71]     c3        131
    x[71]     c4        376
    x[71]     c5        956
    x[71]     c6        1000
    x[71]     c7        810
    x[71]     c8        483
    x[71]     c9        300
    x[71]     c10       865
    x[71]     c11       306
    x[71]     c1        166
    x[71]     OBJ       -749
    x[72]     c2        401
    x[72]     c3        58
    x[72]     c4        315
    x[72]     c5        71
    x[72]     c6        91
    x[72]     c7        651
    x[72]     c8        281
    x[72]     c9        523
    x[72]     c10       288
    x[72]     c11       169
    x[72]     c1        659
    x[72]     OBJ       -88
    x[73]     c2        357
    x[73]     c3        390
    x[73]     c4        945
    x[73]     c5        939
    x[73]     c6        513
    x[73]     c7        115
    x[73]     c8        614
    x[73]     c9        383
    x[73]     c10       567
    x[73]     c11       378
    x[73]     c1        15
    x[73]     OBJ       -696
    x[74]     c2        406
    x[74]     c3        228
    x[74]     c4        180
    x[74]     c5        518
    x[74]     c6        986
    x[74]     c7        646
    x[74]     c8        667
    x[74]     c9        445
    x[74]     c10       581
    x[74]     c11       520
    x[74]     c1        230
    x[74]     OBJ       -622
    x[75]     c2        556
    x[75]     c3        686
    x[75]     c4        146
    x[75]     c5        518
    x[75]     c6        999
    x[75]     c7        597
    x[75]     c8        957
    x[75]     c9        74
    x[75]     c10       401
    x[75]     c11       528
    x[75]     c1        577
    x[75]     OBJ       -23
    x[76]     c2        188
    x[76]     c3        254
    x[76]     c4        756
    x[76]     c5        546
    x[76]     c6        585
    x[76]     c7        417
    x[76]     c8        695
    x[76]     c9        951
    x[76]     c10       993
    x[76]     c11       572
    x[76]     c1        807
    x[76]     OBJ       -95
    x[77]     c2        381
    x[77]     c3        599
    x[77]     c4        148
    x[77]     c5        921
    x[77]     c6        318
    x[77]     c7        449
    x[77]     c8        802
    x[77]     c9        741
    x[77]     c10       245
    x[77]     c11       294
    x[77]     c1        420
    x[77]     OBJ       -443
    x[78]     c2        924
    x[78]     c3        294
    x[78]     c4        139
    x[78]     c5        40
    x[78]     c6        626
    x[78]     c7        758
    x[78]     c8        793
    x[78]     c9        567
    x[78]     c10       941
    x[78]     c11       22
    x[78]     c1        862
    x[78]     OBJ       -144
    x[79]     c2        575
    x[79]     c3        878
    x[79]     c4        645
    x[79]     c5        313
    x[79]     c6        414
    x[79]     c7        952
    x[79]     c8        592
    x[79]     c9        217
    x[79]     c10       558
    x[79]     c11       157
    x[79]     c1        974
    x[79]     OBJ       -50
    x[80]     c2        188
    x[80]     c3        932
    x[80]     c4        962
    x[80]     c5        15
    x[80]     c6        568
    x[80]     c7        586
    x[80]     c8        411
    x[80]     c9        5
    x[80]     c10       795
    x[80]     c11       231
    x[80]     c1        991
    x[80]     OBJ       -25
    x[81]     c2        178
    x[81]     c3        959
    x[81]     c4        71
    x[81]     c5        464
    x[81]     c6        64
    x[81]     c7        106
    x[81]     c8        948
    x[81]     c9        460
    x[81]     c10       357
    x[81]     c11       868
    x[81]     c1        795
    x[81]     OBJ       306
    x[82]     c2        890
    x[82]     c3        632
    x[82]     c4        461
    x[82]     c5        35
    x[82]     c6        974
    x[82]     c7        864
    x[82]     c8        724
    x[82]     c9        372
    x[82]     c10       513
    x[82]     c11       535
    x[82]     c1        938
    x[82]     OBJ       216
    x[83]     c2        696
    x[83]     c3        846
    x[83]     c4        231
    x[83]     c5        774
    x[83]     c6        206
    x[83]     c7        907
    x[83]     c8        297
    x[83]     c9        568
    x[83]     c10       324
    x[83]     c11       101
    x[83]     c1        792
    x[83]     OBJ       -115
    x[84]     c2        206
    x[84]     c3        788
    x[84]     c4        838
    x[84]     c5        296
    x[84]     c6        187
    x[84]     c7        541
    x[84]     c8        406
    x[84]     c9        653
    x[84]     c10       917
    x[84]     c11       203
    x[84]     c1        647
    x[84]     OBJ       -118
    x[85]     c2        675
    x[85]     c3        369
    x[85]     c4        937
    x[85]     c5        545
    x[85]     c6        497
    x[85]     c7        371
    x[85]     c8        454
    x[85]     c9        770
    x[85]     c10       946
    x[85]     c11       660
    x[85]     c1        59
    x[85]     OBJ       -570
    x[86]     c2        293
    x[86]     c3        361
    x[86]     c4        26
    x[86]     c5        803
    x[86]     c6        11
    x[86]     c7        28
    x[86]     c8        405
    x[86]     c9        966
    x[86]     c10       199
    x[86]     c11       495
    x[86]     c1        991
    x[86]     OBJ       418
    x[87]     c2        768
    x[87]     c3        657
    x[87]     c4        397
    x[87]     c5        133
    x[87]     c6        387
    x[87]     c7        842
    x[87]     c8        381
    x[87]     c9        281
    x[87]     c10       202
    x[87]     c11       383
    x[87]     c1        759
    x[87]     OBJ       -35
    x[88]     c2        679
    x[88]     c3        309
    x[88]     c4        294
    x[88]     c5        618
    x[88]     c6        493
    x[88]     c7        451
    x[88]     c8        723
    x[88]     c9        333
    x[88]     c10       660
    x[88]     c11       667
    x[88]     c1        627
    x[88]     OBJ       -352
    x[89]     c2        376
    x[89]     c3        123
    x[89]     c4        509
    x[89]     c5        549
    x[89]     c6        115
    x[89]     c7        197
    x[89]     c8        6
    x[89]     c9        130
    x[89]     c10       132
    x[89]     c11       483
    x[89]     c1        328
    x[89]     OBJ       -22
    x[90]     c2        868
    x[90]     c3        688
    x[90]     c4        53
    x[90]     c5        523
    x[90]     c6        471
    x[90]     c7        335
    x[90]     c8        203
    x[90]     c9        318
    x[90]     c10       664
    x[90]     c11       709
    x[90]     c1        902
    x[90]     OBJ       -150
    x[91]     c2        63
    x[91]     c3        116
    x[91]     c4        719
    x[91]     c5        745
    x[91]     c6        618
    x[91]     c7        701
    x[91]     c8        619
    x[91]     c9        896
    x[91]     c10       215
    x[91]     c11       54
    x[91]     c1        629
    x[91]     OBJ       -264
    x[92]     c2        813
    x[92]     c3        308
    x[92]     c4        128
    x[92]     c5        626
    x[92]     c6        828
    x[92]     c7        92
    x[92]     c8        880
    x[92]     c9        288
    x[92]     c10       109
    x[92]     c11       460
    x[92]     c1        510
    x[92]     OBJ       -128
    x[93]     c2        548
    x[93]     c3        187
    x[93]     c4        607
    x[93]     c5        740
    x[93]     c6        799
    x[93]     c7        993
    x[93]     c8        732
    x[93]     c9        920
    x[93]     c10       715
    x[93]     c11       460
    x[93]     c1        103
    x[93]     OBJ       -614
    x[94]     c2        275
    x[94]     c3        549
    x[94]     c4        550
    x[94]     c5        365
    x[94]     c6        556
    x[94]     c7        297
    x[94]     c8        870
    x[94]     c9        248
    x[94]     c10       377
    x[94]     c11       573
    x[94]     c1        788
    x[94]     OBJ       -111
    x[95]     c2        177
    x[95]     c3        906
    x[95]     c4        412
    x[95]     c5        891
    x[95]     c6        113
    x[95]     c7        732
    x[95]     c8        264
    x[95]     c9        92
    x[95]     c10       829
    x[95]     c11       164
    x[95]     c1        73
    x[95]     OBJ       -761
    x[96]     c2        521
    x[96]     c3        252
    x[96]     c4        44
    x[96]     c5        514
    x[96]     c6        289
    x[96]     c7        245
    x[96]     c8        148
    x[96]     c9        102
    x[96]     c10       206
    x[96]     c11       805
    x[96]     c1        379
    x[96]     OBJ       -129
    x[97]     c2        804
    x[97]     c3        158
    x[97]     c4        494
    x[97]     c5        372
    x[97]     c6        811
    x[97]     c7        672
    x[97]     c8        281
    x[97]     c9        228
    x[97]     c10       228
    x[97]     c11       154
    x[97]     c1        573
    x[97]     OBJ       -64
    x[98]     c2        664
    x[98]     c3        485
    x[98]     c4        806
    x[98]     c5        467
    x[98]     c6        104
    x[98]     c7        302
    x[98]     c8        439
    x[98]     c9        244
    x[98]     c10       141
    x[98]     c11       884
    x[98]     c1        783
    x[98]     OBJ       -86
    x[99]     c2        904
    x[99]     c3        860
    x[99]     c4        420
    x[99]     c5        615
    x[99]     c6        740
    x[99]     c7        569
    x[99]     c8        373
    x[99]     c9        371
    x[99]     c10       642
    x[99]     c11       190
    x[99]     c1        310
    x[99]     OBJ       -440
    x[100]    c2        422
    x[100]    c3        524
    x[100]    c4        844
    x[100]    c5        353
    x[100]    c6        780
    x[100]    c7        514
    x[100]    c8        521
    x[100]    c9        335
    x[100]    c10       87
    x[100]    c11       724
    x[100]    c1        38
    x[100]    OBJ       -751
RHS
    rhs       c2        12201
    rhs       c3        12416
    rhs       c4        11848
    rhs       c5        13093
    rhs       c6        12057
    rhs       c7        13132
    rhs       c8        11805
    rhs       c9        10865
    rhs       c10       12479
    rhs       c11       10652
    rhs       c1        1283
RANGES
BOUNDS
 LO bounds    ss[1]     0
 PL bounds    ss[1]
 MI bounds    s[1]
 UP bounds    s[1]      0
 MI bounds    s[2]
 UP bounds    s[2]      0
 MI bounds    s[3]
 UP bounds    s[3]      0
 MI bounds    s[4]
 UP bounds    s[4]      0
 MI bounds    s[5]
 UP bounds    s[5]      0
 MI bounds    s[6]
 UP bounds    s[6]      0
 MI bounds    s[7]
 UP bounds    s[7]      0
 MI bounds    s[8]
 UP bounds    s[8]      0
 MI bounds    s[9]
 UP bounds    s[9]      0
 MI bounds    s[10]
 UP bounds    s[10]     0
 BV bounds    x[1]
 BV bounds    x[2]
 BV bounds    x[3]
 BV bounds    x[4]
 BV bounds    x[5]
 BV bounds    x[6]
 BV bounds    x[7]
 BV bounds    x[8]
 BV bounds    x[9]
 BV bounds    x[10]
 BV bounds    x[11]
 BV bounds    x[12]
 BV bounds    x[13]
 BV bounds    x[14]
 BV bounds    x[15]
 BV bounds    x[16]
 BV bounds    x[17]
 BV bounds    x[18]
 BV bounds    x[19]
 BV bounds    x[20]
 BV bounds    x[21]
 BV bounds    x[22]
 BV bounds    x[23]
 BV bounds    x[24]
 BV bounds    x[25]
 BV bounds    x[26]
 BV bounds    x[27]
 BV bounds    x[28]
 BV bounds    x[29]
 BV bounds    x[30]
 BV bounds    x[31]
 BV bounds    x[32]
 BV bounds    x[33]
 BV bounds    x[34]
 BV bounds    x[35]
 BV bounds    x[36]
 BV bounds    x[37]
 BV bounds    x[38]
 BV bounds    x[39]
 BV bounds    x[40]
 BV bounds    x[41]
 BV bounds    x[42]
 BV bounds    x[43]
 BV bounds    x[44]
 BV bounds    x[45]
 BV bounds    x[46]
 BV bounds    x[47]
 BV bounds    x[48]
 BV bounds    x[49]
 BV bounds    x[50]
 BV bounds    x[51]
 BV bounds    x[52]
 BV bounds    x[53]
 BV bounds    x[54]
 BV bounds    x[55]
 BV bounds    x[56]
 BV bounds    x[57]
 BV bounds    x[58]
 BV bounds    x[59]
 BV bounds    x[60]
 BV bounds    x[61]
 BV bounds    x[62]
 BV bounds    x[63]
 BV bounds    x[64]
 BV bounds    x[65]
 BV bounds    x[66]
 BV bounds    x[67]
 BV bounds    x[68]
 BV bounds    x[69]
 BV bounds    x[70]
 BV bounds    x[71]
 BV bounds    x[72]
 BV bounds    x[73]
 BV bounds    x[74]
 BV bounds    x[75]
 BV bounds    x[76]
 BV bounds    x[77]
 BV bounds    x[78]
 BV bounds    x[79]
 BV bounds    x[80]
 BV bounds    x[81]
 BV bounds    x[82]
 BV bounds    x[83]
 BV bounds    x[84]
 BV bounds    x[85]
 BV bounds    x[86]
 BV bounds    x[87]
 BV bounds    x[88]
 BV bounds    x[89]
 BV bounds    x[90]
 BV bounds    x[91]
 BV bounds    x[92]
 BV bounds    x[93]
 BV bounds    x[94]
 BV bounds    x[95]
 BV bounds    x[96]
 BV bounds    x[97]
 BV bounds    x[98]
 BV bounds    x[99]
 BV bounds    x[100]
ENDATA
